set B := 1 2 3 4 5;

set ESS := 1 2;

set G_D := 1 2 3 4 5;

set G_T := 1 2 3 4 5;

set L :=
(1,2)     (6,7)     (10,12)   (16,17)   (20,22)   (24,27)   (27,29)
(2,3)     (7,8)     (12,15)   (17,19)   (21,23)   (26,28)   (29,32)
(3,4)     (8,9)     (11,14)   (17,18)   (22,25)   (28,30)   (32,34)
(4,5)     (9,10)    (11,13)   (18,20)   (22,24)   (30,33)
(4,6)     (9,11)    (13,16)   (20,21)   (24,26)   (28,31);

set LDA := 1;

set LS := 1 2 3 4 5 6 7 8;

set N :=
1    4    7    10   13   16   19   22   25   28   31   34
2    5    8    11   14   17   20   23   26   29   32
3    6    9    12   15   18   21   24   27   30   33;

set RES_D := 1 2 3;

set RES_T := 1 2 3;

set S := 1;

set T :=
1    3    5    7    9    11   13   15   17   19   21   23
2    4    6    8    10   12   14   16   18   20   22   24;

set Trans_Lines := 1 2 3 4 5 6 7 8 9 10 11 12 13 14 15 16 17 18 19 20;

set Trans_Nodes := 1 2 3 4 5 6 7 8 9 10 11 12 13 14;

set WS := (1,1,1) (1,2,1) (1,3,1) (1,4,1) (1,5,1);

